/* objective function */

Min: 750y1 + 900y2 + 450y3 + 13000y4  +12000y5 + 5000y6 + 900y7 + 1200y8 + 750y9 + 0y10 + 0y11;

/* Constraints */

y1 + 20y4 + y7 + 900y10 + 450y11 >= 420;
y1 + 15y4 + y8 + 900y10 + 450y11 >= 360;
y1 + 12y4 + y9 + 900y10 + 450y11 >= 300;
y2 + 20y5 + y7 - 750y10 >= 420;
y2 + 15y5 + y8 - 750y10 >= 360;
y2 + 12y5 + y9 - 750y10 >= 300;
y3 + 20y6 + y7 - 750y11 >= 420;
y3 + 15y6 + y8 - 750y11 >= 360;
y3 + 12y6 + y9 - 750y11 >= 300;

/* End  */
